32      4       
10      10      10      10      
0       0       0       0       0       3       2       3       4       
3       1       1       1       0       2       5       7       
6       3       4       5       0       2       5       7       
4       6       3       0       1       2       6       7       
3       7       0       6       2       1       6       
8       4       0       2       6       2       8       9       
9       0       1       6       4       1       8       
8       2       5       4       0       2       10      12      
7       0       3       3       1       2       10      12      
7       0       3       6       3       1       11      
3       4       0       4       4       2       13      15      
4       2       8       3       0       2       13      15      
8       0       4       5       2       1       14      
6       0       4       4       4       4       16      17      18      19      
2       5       6       4       0       3       16      17      18      
6       5       2       4       0       3       20      21      23      
6       7       0       5       4       2       20      23      
2       0       4       2       2       2       20      23      
5       2       0       3       4       2       20      21      
10      0       5       5       5       1       22      
1       5       0       5       2       1       22      
10      0       4       2       7       2       24      26      
10      0       5       5       8       2       25      26      
1       2       0       4       5       1       25      
7       6       4       4       0       2       27      28      
2       3       5       0       9       2       28      31      
2       0       3       3       2       3       29      30      31      
1       3       3       3       0       2       29      30      
2       0       5       6       6       1       32      
4       0       5       4       2       1       32      
2       5       5       0       5       1       32      
0       0       0       0       0       0       
